N = 4;
Capacity = 14;
nbVehicles = 4;
maxVisitsPerCustomer = 2;
Demand = [8, 3, 6, 8];
Distance = [|
  0, 20, 41, 47, 21
| 20, 0, 60, 58, 30
| 41, 60, 0, 29, 36
| 47, 58, 29, 0, 28
| 21, 30, 36, 28, 0
|];
